
List of user-set options:

                                    Name   Value                used
                           compl_inf_tol = 1                     yes
                         constr_viol_tol = 1                     yes
                            dual_inf_tol = 1000                  yes
                           linear_solver = ma97                  yes
                              ma86_small = 1e-30                  no
                                  ma86_u = 0.0001                 no
                              ma97_order = best                  yes
                              ma97_small = 1e-30                 yes
                            ma97_switch1 = at_start              yes
                            ma97_switch2 = od_hd_reuse           yes
                                  ma97_u = 1e-06                 yes
                               ma97_umax = 0.5                   yes
                                max_iter = 1000                  yes
                    max_refinement_steps = 20                    yes
                    min_refinement_steps = 5                     yes
                                 mu_init = 1e-06                 yes
           mu_superlinear_decrease_power = 1.25                  yes
                   nlp_scaling_min_value = 1e-08                 yes
                        option_file_name = Preset_Case_823_pf.opt  yes
                             output_file = ./tmp/Preset_Case_823_pf.output  yes
                      print_user_options = yes                   yes
        required_infeasibility_reduction = 1                      no
                                     tol = 1e-08                 yes
                   warm_start_bound_frac = 1e-20                 yes
                   warm_start_bound_push = 1e-20                 yes
                   warm_start_init_point = yes                   yes
              warm_start_mult_bound_push = 1e-20                 yes
                warm_start_mult_init_max = 1e+40                 yes
             warm_start_slack_bound_frac = 1e-20                 yes
             warm_start_slack_bound_push = 1e-20                 yes

******************************************************************************
This program contains Ipopt, a library for large-scale nonlinear optimization.
 Ipopt is released as open source code under the Eclipse Public License (EPL).
         For more information visit http://projects.coin-or.org/Ipopt
******************************************************************************

This is Ipopt version 3.12.10, running with linear solver ma97.

Number of nonzeros in equality constraint Jacobian...:   123442
Number of nonzeros in inequality constraint Jacobian.:      213
Number of nonzeros in Lagrangian Hessian.............:    49069

Total number of variables............................:    31591
                     variables with only lower bounds:    12912
                variables with lower and upper bounds:    15130
                     variables with only upper bounds:        0
Total number of equality constraints.................:    31483
Total number of inequality constraints...............:       25
        inequality constraints with only lower bounds:        4
   inequality constraints with lower and upper bounds:        0
        inequality constraints with only upper bounds:       21

iter    objective    inf_pr   inf_du lg(mu)  ||d||  lg(rg) alpha_du alpha_pr  ls
   0 -5.2656720e+00 4.01e-03 1.02e+00  -6.0 0.00e+00    -  0.00e+00 0.00e+00   0
   1 -5.2651257e+00 3.02e-02 1.02e+00  -6.0 4.61e+05    -  6.79e-05 5.68e-05h  5
   2 -5.2663558e+00 3.02e-02 3.13e+01  -6.0 7.17e+03    -  1.39e-01 1.13e-03h  1
   3 -5.2663138e+00 3.01e-02 3.93e+01  -6.0 1.70e+02  -4.0 4.01e-02 4.08e-03f  6
   4 -5.3937846e+00 1.16e+01 2.24e+02  -6.0 7.18e+03    -  2.20e-01 1.17e-01h  1
   5 -5.4022773e+00 1.17e+01 2.66e+02  -6.0 1.34e+04    -  1.08e-01 7.73e-03h  1
   6 -5.5040310e+00 9.99e+00 5.67e+05  -6.0 1.51e+03    -  4.65e-01 1.57e-01h  1
   7 -5.5287964e+00 5.85e+00 6.29e+05  -6.0 1.35e+02  -4.5 3.07e-06 4.14e-01h  1
   8 -5.5367645e+00 6.79e-03 2.00e+07  -6.0 1.31e+01  -5.0 4.10e-02 1.00e+00h  1
   9 -5.5536074e+00 1.19e-02 1.32e+07  -6.0 6.00e+01  -5.4 3.33e-01 3.43e-01h  1
iter    objective    inf_pr   inf_du lg(mu)  ||d||  lg(rg) alpha_du alpha_pr  ls
  10 -5.6696555e+00 4.43e-01 3.31e+04  -6.0 1.33e+02  -5.9 2.29e-01 1.00e+00f  1
  11 -5.7756787e+00 2.01e+00 1.90e+04  -6.0 9.28e+01  -6.4 3.01e-01 4.22e-01h  1
  12 -5.8050810e+00 1.38e+00 1.04e+04  -6.0 2.08e+02  -6.9 2.07e-01 4.51e-01h  1
  13 -5.8131289e+00 1.22e+00 9.19e+03  -6.0 3.12e+02  -7.3 3.84e-01 1.19e-01h  1
  14 -5.8369248e+00 5.04e-01 2.16e+03  -6.0 1.72e+02  -6.9 4.62e-01 7.71e-01h  1
  15 -5.8443200e+00 1.41e+00 2.09e+03  -6.0 8.23e+03  -7.4 1.82e-02 3.29e-02h  1
  16 -5.8795230e+00 7.70e+00 1.96e+03  -6.0 9.75e+03  -7.9 1.98e-02 6.24e-02h  1
  17 -5.9131650e+00 5.96e+00 1.48e+03  -6.0 3.35e+03    -  2.50e-01 2.41e-01h  1
  18 -5.9143011e+00 5.93e+00 1.48e+03  -6.0 6.22e+03    -  4.84e-02 5.84e-03h  1
  19 -5.9405565e+00 7.93e+00 2.04e+03  -6.0 1.96e+03    -  1.00e+00 5.57e-01h  1
iter    objective    inf_pr   inf_du lg(mu)  ||d||  lg(rg) alpha_du alpha_pr  ls
  20 -5.9428797e+00 5.41e+00 9.66e+02  -6.0 8.07e+02    -  8.31e-02 3.53e-01h  1
  21 -5.9505288e+00 4.14e+00 7.36e+03  -6.0 9.50e+02    -  5.38e-01 9.34e-01h  1
  22 -5.9501263e+00 3.33e+00 1.44e+04  -6.0 1.23e+03    -  7.22e-02 2.02e-01h  1
  23 -5.9520420e+00 3.17e+00 4.70e+04  -6.0 1.97e+03    -  7.73e-01 6.47e-02h  1
  24 -5.9525688e+00 2.92e+00 7.29e+04  -6.0 3.51e+02    -  1.00e+00 7.98e-02h  1
  25 -5.9565830e+00 1.21e+00 3.63e+04  -6.0 3.26e+02    -  1.00e+00 5.80e-01h  1
  26 -5.9586114e+00 8.83e-01 4.03e+05  -6.0 4.20e+02    -  7.37e-02 2.83e-01h  1
  27 -5.9586215e+00 8.83e-01 4.07e+05  -6.0 1.40e+03    -  1.24e-01 1.41e-04h  1
  28 -5.9730580e+00 2.37e+00 1.31e+06  -6.0 3.85e+02    -  3.08e-01 1.00e+00f  1
  29 -5.9754137e+00 2.06e+00 8.71e+05  -6.0 3.10e+02    -  4.53e-01 1.42e-01h  1
iter    objective    inf_pr   inf_du lg(mu)  ||d||  lg(rg) alpha_du alpha_pr  ls
  30 -5.9790537e+00 1.61e+00 6.57e+05  -6.0 3.28e+02    -  1.00e+00 2.52e-01h  1
  31 -5.9808936e+00 7.11e-01 5.09e+07  -6.0 1.83e+02    -  1.33e-02 7.44e-01h  1
  32 -5.9730627e+00 4.44e-01 9.53e+03  -6.0 1.12e+02    -  1.54e-01 1.00e+00h  1
  33 -5.9988413e+00 4.87e-02 2.76e+00  -6.0 3.45e+01  -5.6 1.00e+00 1.00e+00h  1
  34 -5.9966525e+00 4.72e-02 9.35e+01  -6.0 8.47e+01    -  1.00e+00 1.21e-01h  1
  35 -5.9921129e+00 4.42e-02 8.86e+02  -6.0 5.81e+01    -  1.00e+00 2.50e-01h  3
  36 -5.9792734e+00 3.08e-02 1.93e+04  -6.0 5.59e+01    -  5.78e-02 1.00e+00H  1
  37 -5.9756834e+00 1.60e-03 3.04e+01  -6.0 1.70e+01    -  1.00e+00 1.00e+00h  1
  38 -5.9756085e+00 4.78e-03 1.63e-01  -6.0 1.07e+01    -  1.00e+00 1.00e+00h  1
  39 -5.9755864e+00 1.71e-05 7.23e-04  -6.0 6.47e-01    -  1.00e+00 1.00e+00h  1
iter    objective    inf_pr   inf_du lg(mu)  ||d||  lg(rg) alpha_du alpha_pr  ls
  40 -5.9755828e+00 8.67e-07 1.53e-05  -6.0 1.45e-01    -  1.00e+00 1.00e+00h  1
  41 -5.9756484e+00 1.65e-03 5.14e+01  -7.5 3.17e+01    -  9.56e-01 7.77e-01h  1
  42 -5.9756540e+00 3.40e-04 9.38e+00  -7.5 7.19e+00    -  1.00e+00 8.54e-01h  1
  43 -5.9756541e+00 2.77e-06 1.26e-02  -7.5 1.04e+00    -  1.00e+00 1.00e+00h  1
  44 -5.9756541e+00 2.85e-10 2.38e-09  -7.5 1.87e-04    -  1.00e+00 1.00e+00h  1
  45 -5.9756557e+00 1.97e-06 7.19e-01  -9.0 1.01e+00    -  9.25e-01 8.47e-01h  1
  46 -5.9756560e+00 6.43e-08 2.81e-04  -9.0 1.55e-01    -  1.00e+00 1.00e+00f  1
  47 -5.9756560e+00 1.44e-10 1.46e-09  -9.0 4.91e-05    -  1.00e+00 1.00e+00h  1

Number of Iterations....: 47

                                   (scaled)                 (unscaled)
Objective...............:  -4.6684812534333062e+00   -5.9756560043946321e+00
Dual infeasibility......:   1.4633154291627116e-09    1.8730437493282710e-09
Constraint violation....:   1.4444727261097440e-10    1.4444727261097440e-10
Complementarity.........:   1.1514776268367706e-09    1.4738913623510663e-09
Overall NLP error.......:   1.4633154291627116e-09    1.8730437493282710e-09


Number of objective function evaluations             = 68
Number of objective gradient evaluations             = 48
Number of equality constraint evaluations            = 68
Number of inequality constraint evaluations          = 68
Number of equality constraint Jacobian evaluations   = 48
Number of inequality constraint Jacobian evaluations = 48
Number of Lagrangian Hessian evaluations             = 47
Total CPU secs in IPOPT (w/o function evaluations)   =    104.119
Total CPU secs in NLP function evaluations           =      1.852

EXIT: Optimal Solution Found.
